\ENCODING=ISO-8859-1
\Problem name: 

Minimize
 obj: x1 + x2 + x3 + x4 + x5 + x6 + x7 + x8 + x9 + x10 + x11 + x12 + x13 + x14
      + x15 + x16 + x17 + x18 + x19 + x20 + x21 + x22 + x23 + x24 + x25 + x26
      + 2 x27 + 2 x28 + 2 x29 + 2 x30 + 2 x31 + 2 x32 + 2 x33 + 2 x34 + 2 x35
      + 2 x36 + 2 x37 + 2 x38 + 2 x39 + 2 x40 + 2 x41 + 2 x42 + 2 x43 + 2 x44
      + 2 x45 + 3 x46 + 3 x47 + 3 x48 + 3 x49 + 3 x50 + 3 x51 + 3 x52 + 3 x53
      + 3 x54 + 3 x55 + 3 x56 + 3 x57 + 3 x58 + 3 x59 + 3 x60 + 3 x61 + 3 x62
      + 4 x63 + 4 x64 + 4 x65 + 4 x66 + 4 x67 + 4 x68 + 4 x69 + 4 x70 + 4 x71
      + 4 x72 + 4 x73 + 4 x74 + 4 x75 + 4 x76 + 4 x77 + 4 x78 + 4 x79 + 4 x80
      + 4 x81 + 4 x82 + 4 x83 + 4 x84 + 4 x85 + 4 x86 + 5 x87 + 5 x88 + 5 x89
      + 5 x90 + 5 x91 + 5 x92 + 5 x93 + 5 x94 + 5 x95 + 5 x96 + 5 x97 + 5 x98
      + 5 x99 + 5 x100 + 5 x101 + 5 x102 + 5 x103 + 5 x104 + 5 x105 + 5 x106
      + 5 x107 + 5 x108 + 5 x109 + 5 x110 + 5 x111 + 6 x112 + 6 x113 + 6 x114
      + 6 x115 + 6 x116 + 6 x117 + 7 x118 + 7 x119 + 7 x120 + 7 x121 + 7 x122
      + 7 x123 + 7 x124 + 7 x125 + 7 x126 + 7 x127 + 7 x128 + 7 x129 + 7 x130
      + 7 x131 + 7 x132 + 8 x133 + 8 x134 + 8 x135 + 8 x136 + 8 x137 + 8 x138
      + 8 x139 + 8 x140 + 8 x141 + 8 x142 + 9 x143 + 9 x144 + 9 x145 + 9 x146
      + 9 x147 + 9 x148 + 9 x149 + 9 x150 + 9 x151 + 9 x152 + 9 x153 + 9 x154
      + 9 x155 + 10 x156 + 10 x157 + 10 x158 + 10 x159 + 10 x160 + 10 x161
      + 10 x162 + 10 x163 + 10 x164 + 10 x165 + 10 x166 + 11 x167 + 11 x168
      + 11 x169 + 11 x170 + 11 x171 + 11 x172 + 11 x173 + 11 x174 + 11 x175
      + 11 x176 + 11 x177 + 12 x178 + 12 x179 + 12 x180 + 12 x181 + 12 x182
      + 12 x183 + 12 x184 + 12 x185 + 12 x186 + 13 x187 + 14 x188 + 14 x189
      + 14 x190 + 14 x191 + 15 x192 + 15 x193 + 15 x194 + 16 x195 + 17 x196
      + 17 x197 + 17 x198 + 18 x199 + 18 x200 + 19 x201 + 19 x202 + 22 x203
      + 23 x204 + 41 x205
Subject To
 c1:   x95 + x113 + x143 + x198 >= 1
 c2:   x4 + x5 + x89 + x147 + x164 + x194 >= 1
 c3:   x3 + x118 + x146 >= 1
 c4:   x5 + x70 + x95 + x119 + x167 + x203 >= 1
 c5:   x70 + x87 + x134 + x165 + x171 + x187 >= 1
 c6:   x14 + x16 + x18 + x27 + x35 + x87 + x127 + x189 + x203 + x205 >= 1
 c7:   x30 + x69 + x84 + x133 + x205 >= 1
 c8:   x71 + x122 + x129 + x140 >= 1
 c9:   x42 + x77 + x104 + x144 + x152 >= 1
 c10:  x28 + x50 + x139 + x162 >= 1
 c11:  x106 + x113 >= 1
 c12:  x108 + x137 + x181 + x183 + x199 + x200 >= 1
 c13:  x53 + x54 + x61 + x94 + x137 + x170 + x171 >= 1
 c14:  x6 + x114 + x201 >= 1
 c15:  x10 + x20 + x27 + x33 + x59 + x61 + x101 + x197 >= 1
 c16:  x27 + x32 + x38 + x58 + x63 + x65 + x156 + x192 >= 1
 c17:  x60 + x192 + x197 >= 1
 c18:  x32 + x48 + x59 + x69 + x152 >= 1
 c19:  x12 + x56 + x108 + x167 + x178 + x181 >= 1
 c20:  x6 + x23 + x76 >= 1
 c21:  x16 + x107 >= 1
 c22:  x34 + x197 >= 1
 c23:  x62 + x191 + x196 + x201 >= 1
 c24:  x28 + x157 + x171 + x178 >= 1
 c25:  x24 + x88 + x104 + x134 >= 1
 c26:  x2 + x119 + x148 + x149 + x159 + x161 >= 1
 c27:  x4 + x140 + x187 >= 1
 c28:  x4 + x23 + x120 + x173 + x203 >= 1
 c29:  x35 + x51 + x73 + x100 + x102 + x180 >= 1
 c30:  x2 + x3 + x20 + x41 + x103 + x157 >= 1
 c31:  x29 + x31 + x171 + x204 >= 1
 c32:  x87 + x106 + x174 >= 1
 c33:  x68 + x158 + x161 + x162 >= 1
 c34:  x127 + x195 + x197 >= 1
 c35:  x72 + x114 >= 1
 c36:  x5 + x13 + x28 + x123 + x193 + x202 >= 1
 c37:  x6 + x63 + x82 + x96 + x178 + x201 >= 1
 c38:  x72 + x112 + x126 + x146 >= 1
 c39:  x34 + x58 + x126 + x133 + x144 + x172 >= 1
 c40:  x29 + x49 + x67 + x76 + x124 + x151 + x156 >= 1
 c41:  x31 + x97 >= 1
 c42:  x2 + x120 + x145 + x169 + x203 >= 1
 c43:  x65 + x94 + x102 + x107 + x120 + x134 >= 1
 c44:  x22 + x34 + x110 >= 1
 c45:  x51 + x66 + x74 + x112 + x114 + x141 + x173 + x174 + x178 + x189 + x193
       >= 1
 c46:  x158 + x178 + x191 >= 1
 c47:  x12 + x15 + x74 + x123 >= 1
 c48:  x18 + x101 + x159 >= 1
 c49:  x17 + x104 >= 1
 c50:  x152 >= 1
 c51:  x6 + x60 + x109 + x119 >= 1
 c52:  x42 + x144 + x156 + x168 + x184 >= 1
 c53:  x2 + x17 + x118 + x151 + x167 + x183 >= 1
 c54:  x39 + x103 + x174 + x188 >= 1
 c55:  x19 + x119 + x128 + x134 + x153 + x156 + x178 >= 1
 c56:  x39 + x78 + x133 + x134 + x141 + x168 + x179 + x188 + x196 >= 1
 c57:  x63 + x93 + x187 >= 1
 c58:  x96 + x197 + x199 >= 1
 c59:  x5 + x8 + x20 >= 1
 c60:  x1 + x63 + x115 >= 1
 c61:  x9 + x14 + x19 + x156 + x203 >= 1
 c62:  x15 + x64 + x88 + x203 >= 1
 c63:  x47 + x69 + x120 >= 1
 c64:  x37 + x160 + x164 >= 1
 c65:  x8 + x46 + x56 + x119 + x147 + x168 + x170 >= 1
 c66:  x30 + x56 + x99 + x110 >= 1
 c67:  x19 + x100 >= 1
 c68:  x12 + x89 + x106 >= 1
 c69:  x33 + x91 + x92 + x182 >= 1
 c70:  x47 + x159 + x169 + x202 >= 1
 c71:  x8 + x49 + x57 + x115 + x190 >= 1
 c72:  x22 + x82 + x87 + x92 + x162 + x205 >= 1
 c73:  x170 + x176 + x184 + x196 >= 1
 c74:  x11 + x13 + x18 + x81 + x138 >= 1
 c75:  x51 + x59 + x85 + x175 >= 1
 c76:  x64 + x102 + x103 + x107 + x136 + x143 + x149 + x191 + x204 >= 1
 c77:  x50 + x100 + x170 + x175 >= 1
 c78:  x78 + x96 + x136 + x144 + x205 >= 1
 c79:  x95 + x101 + x184 + x186 + x190 >= 1
 c80:  x1 + x120 + x195 >= 1
 c81:  x36 + x47 + x99 + x114 >= 1
 c82:  x76 + x123 + x147 + x157 >= 1
 c83:  x17 + x105 + x163 + x192 >= 1
 c84:  x51 + x84 + x135 + x188 >= 1
 c85:  x95 + x126 + x179 + x181 + x196 >= 1
 c86:  x1 + x32 + x68 + x79 + x123 + x141 >= 1
 c87:  x2 + x15 + x17 + x71 + x127 + x137 >= 1
 c88:  x15 + x57 + x63 + x77 + x180 >= 1
 c89:  x27 + x136 + x163 >= 1
 c90:  x151 + x187 + x203 >= 1
 c91:  x6 >= 1
 c92:  x43 + x72 + x75 + x90 + x169 >= 1
 c93:  x91 + x92 + x107 + x123 + x133 + x192 + x199 >= 1
 c94:  x33 >= 1
 c95:  x10 + x98 + x158 >= 1
 c96:  x88 + x150 + x190 + x196 >= 1
 c97:  x3 + x125 + x133 + x164 + x179 >= 1
 c98:  x53 + x135 + x143 + x182 >= 1
 c99:  x60 + x99 + x103 + x118 + x145 + x186 >= 1
 c100: x46 + x52 + x76 + x93 + x149 + x156 + x159 + x173 + x180 >= 1
 c101: x29 >= 1
 c102: x13 + x48 + x190 >= 1
 c103: x155 + x177 + x183 + x185 + x189 + x205 >= 1
 c104: x53 + x89 + x129 + x135 + x140 + x154 + x172 + x194 >= 1
 c105: x52 + x67 + x146 + x167 + x195 >= 1
 c106: x31 + x195 >= 1
 c107: x132 + x134 + x139 + x153 + x189 >= 1
 c108: x3 + x32 + x54 + x90 + x129 + x159 >= 1
 c109: x28 + x44 + x53 + x121 + x133 + x135 + x204 >= 1
 c110: x30 + x49 + x67 + x70 + x71 >= 1
 c111: x36 + x64 + x204 >= 1
 c112: x47 + x91 + x116 + x145 + x188 >= 1
 c113: x47 + x80 + x88 + x96 >= 1
 c114: x81 + x118 + x148 + x157 + x166 + x199 + x204 >= 1
 c115: x78 + x180 >= 1
 c116: x14 + x21 + x116 + x153 + x168 >= 1
 c117: x95 + x118 + x131 + x184 + x188 >= 1
 c118: x117 + x119 + x143 + x154 + x186 + x202 + x205 >= 1
 c119: x36 + x65 + x93 + x158 + x182 + x192 + x204 >= 1
 c120: x3 + x7 + x171 + x196 >= 1
 c121: x37 + x81 + x95 >= 1
 c122: x85 + x111 + x159 + x162 + x179 + x191 >= 1
 c123: x52 + x57 + x63 + x77 + x133 + x180 + x193 + x201 >= 1
 c124: x115 + x138 + x194 >= 1
 c125: x74 + x92 + x93 + x121 + x130 >= 1
 c126: x30 + x44 + x67 + x72 + x73 + x85 + x126 + x143 + x170 + x194 + x198
       >= 1
 c127: x58 + x96 >= 1
 c128: x48 + x50 + x67 + x94 + x178 >= 1
 c129: x8 + x47 + x54 + x55 + x124 >= 1
 c130: x99 + x145 + x200 >= 1
 c131: x1 + x79 + x135 + x150 + x168 >= 1
 c132: x88 + x93 + x121 + x125 + x160 + x167 + x201 >= 1
 c133: x62 + x65 + x97 + x99 + x119 + x185 >= 1
 c134: x83 + x168 + x173 + x177 >= 1
 c135: x31 + x105 + x148 + x161 + x166 + x202 >= 1
 c136: x16 + x91 + x112 + x167 + x194 + x195 >= 1
 c137: x35 + x47 + x94 + x117 + x144 + x193 + x195 >= 1
 c138: x3 + x29 + x40 + x69 + x77 + x122 + x128 + x203 >= 1
 c139: x4 + x160 + x162 >= 1
 c140: x1 + x183 >= 1
 c141: x41 + x54 + x93 + x111 + x118 + x149 >= 1
 c142: x26 + x31 + x43 + x49 + x72 + x91 + x98 + x138 >= 1
 c143: x55 + x69 + x73 + x105 + x179 >= 1
 c144: x1 + x28 + x50 + x87 + x101 + x112 + x179 + x189 >= 1
 c145: x48 + x66 + x163 + x200 >= 1
 c146: x7 + x21 + x80 + x158 >= 1
 c147: x80 + x89 + x104 + x106 + x136 + x160 + x199 + x205 >= 1
 c148: x11 + x18 + x45 + x140 >= 1
 c149: x82 + x160 + x162 + x204 >= 1
 c150: x68 + x71 + x83 + x90 + x97 + x125 + x130 + x150 + x163 >= 1
 c151: x50 + x79 + x98 + x124 + x157 + x170 >= 1
 c152: x46 + x87 + x94 + x108 + x116 + x141 + x142 >= 1
 c153: x22 + x63 + x68 + x109 + x121 + x145 + x176 >= 1
 c154: x147 + x198 + x201 + x205 >= 1
 c155: x14 + x29 + x56 + x139 + x167 >= 1
 c156: x9 + x66 + x139 + x168 >= 1
 c157: x45 + x90 + x112 + x169 + x198 >= 1
 c158: x7 + x30 + x89 + x121 >= 1
 c159: x7 + x27 + x36 + x51 + x58 + x75 + x97 + x122 + x169 + x176 + x195 >= 1
 c160: x66 + x86 + x90 + x113 + x130 + x161 + x180 >= 1
 c161: x46 + x158 + x201 >= 1
 c162: x11 + x24 + x28 + x37 + x112 + x169 >= 1
 c163: x25 + x31 + x52 + x55 + x68 + x118 >= 1
 c164: x128 + x148 + x164 + x182 + x200 + x204 >= 1
 c165: x16 + x49 + x75 + x78 + x97 >= 1
 c166: x2 + x134 + x163 + x179 + x201 >= 1
 c167: x46 + x66 + x132 + x156 >= 1
 c168: x137 + x181 + x192 + x194 + x203 >= 1
 c169: x10 + x27 + x33 + x102 + x138 >= 1
 c170: x30 + x109 + x120 + x189 + x190 + x193 >= 1
 c171: x57 + x74 + x118 + x164 + x169 >= 1
 c172: x5 + x87 + x89 + x98 + x173 + x191 >= 1
 c173: x4 + x92 >= 1
 c174: x64 + x94 + x156 + x158 >= 1
 c175: x12 + x110 + x136 >= 1
 c176: x113 + x142 + x166 + x172 + x175 + x193 + x202 + x205 >= 1
 c177: x29 + x188 + x201 >= 1
 c178: x35 + x48 + x138 >= 1
 c179: x100 + x122 + x137 + x159 + x174 + x185 >= 1
 c180: x11 + x131 + x144 + x152 >= 1
 c181: x13 + x38 + x89 + x151 + x154 >= 1
 c182: x19 + x33 + x70 + x87 + x88 + x198 >= 1
 c183: x34 >= 1
 c184: x38 + x75 + x122 + x124 + x135 + x150 + x189 + x190 >= 1
 c185: x32 + x108 + x121 + x131 >= 1
 c186: x10 + x127 + x133 + x146 + x160 + x204 >= 1
 c187: x88 + x90 + x160 >= 1
 c188: x39 + x70 + x73 + x109 + x143 + x202 >= 1
 c189: x40 + x91 + x161 >= 1
 c190: x46 + x84 + x92 + x133 + x202 >= 1
 c191: x110 + x113 + x142 + x161 + x165 >= 1
 c192: x71 + x125 + x147 + x165 + x172 >= 1
 c193: x9 + x87 + x98 + x177 >= 1
 c194: x7 + x49 + x146 + x172 >= 1
 c195: x48 + x86 + x88 + x115 + x157 >= 1
 c196: x9 + x27 + x55 + x83 + x105 + x157 >= 1
 c197: x8 + x79 + x165 >= 1
 c198: x61 + x128 >= 1
 c199: x21 + x46 + x65 + x167 + x188 >= 1
 c200: x64 + x90 + x153 >= 1
Bounds
 0 <= x1 <= 1
 0 <= x2 <= 1
 0 <= x3 <= 1
 0 <= x4 <= 1
 0 <= x5 <= 1
 0 <= x6 <= 1
 0 <= x7 <= 1
 0 <= x8 <= 1
 0 <= x9 <= 1
 0 <= x10 <= 1
 0 <= x11 <= 1
 0 <= x12 <= 1
 0 <= x13 <= 1
 0 <= x14 <= 1
 0 <= x15 <= 1
 0 <= x16 <= 1
 0 <= x17 <= 1
 0 <= x18 <= 1
 0 <= x19 <= 1
 0 <= x20 <= 1
 0 <= x21 <= 1
 0 <= x22 <= 1
 0 <= x23 <= 1
 0 <= x24 <= 1
 0 <= x25 <= 1
 0 <= x26 <= 1
 0 <= x27 <= 1
 0 <= x28 <= 1
 0 <= x29 <= 1
 0 <= x30 <= 1
 0 <= x31 <= 1
 0 <= x32 <= 1
 0 <= x33 <= 1
 0 <= x34 <= 1
 0 <= x35 <= 1
 0 <= x36 <= 1
 0 <= x37 <= 1
 0 <= x38 <= 1
 0 <= x39 <= 1
 0 <= x40 <= 1
 0 <= x41 <= 1
 0 <= x42 <= 1
 0 <= x43 <= 1
 0 <= x44 <= 1
 0 <= x45 <= 1
 0 <= x46 <= 1
 0 <= x47 <= 1
 0 <= x48 <= 1
 0 <= x49 <= 1
 0 <= x50 <= 1
 0 <= x51 <= 1
 0 <= x52 <= 1
 0 <= x53 <= 1
 0 <= x54 <= 1
 0 <= x55 <= 1
 0 <= x56 <= 1
 0 <= x57 <= 1
 0 <= x58 <= 1
 0 <= x59 <= 1
 0 <= x60 <= 1
 0 <= x61 <= 1
 0 <= x62 <= 1
 0 <= x63 <= 1
 0 <= x64 <= 1
 0 <= x65 <= 1
 0 <= x66 <= 1
 0 <= x67 <= 1
 0 <= x68 <= 1
 0 <= x69 <= 1
 0 <= x70 <= 1
 0 <= x71 <= 1
 0 <= x72 <= 1
 0 <= x73 <= 1
 0 <= x74 <= 1
 0 <= x75 <= 1
 0 <= x76 <= 1
 0 <= x77 <= 1
 0 <= x78 <= 1
 0 <= x79 <= 1
 0 <= x80 <= 1
 0 <= x81 <= 1
 0 <= x82 <= 1
 0 <= x83 <= 1
 0 <= x84 <= 1
 0 <= x85 <= 1
 0 <= x86 <= 1
 0 <= x87 <= 1
 0 <= x88 <= 1
 0 <= x89 <= 1
 0 <= x90 <= 1
 0 <= x91 <= 1
 0 <= x92 <= 1
 0 <= x93 <= 1
 0 <= x94 <= 1
 0 <= x95 <= 1
 0 <= x96 <= 1
 0 <= x97 <= 1
 0 <= x98 <= 1
 0 <= x99 <= 1
 0 <= x100 <= 1
 0 <= x101 <= 1
 0 <= x102 <= 1
 0 <= x103 <= 1
 0 <= x104 <= 1
 0 <= x105 <= 1
 0 <= x106 <= 1
 0 <= x107 <= 1
 0 <= x108 <= 1
 0 <= x109 <= 1
 0 <= x110 <= 1
 0 <= x111 <= 1
 0 <= x112 <= 1
 0 <= x113 <= 1
 0 <= x114 <= 1
 0 <= x115 <= 1
 0 <= x116 <= 1
 0 <= x117 <= 1
 0 <= x118 <= 1
 0 <= x119 <= 1
 0 <= x120 <= 1
 0 <= x121 <= 1
 0 <= x122 <= 1
 0 <= x123 <= 1
 0 <= x124 <= 1
 0 <= x125 <= 1
 0 <= x126 <= 1
 0 <= x127 <= 1
 0 <= x128 <= 1
 0 <= x129 <= 1
 0 <= x130 <= 1
 0 <= x131 <= 1
 0 <= x132 <= 1
 0 <= x133 <= 1
 0 <= x134 <= 1
 0 <= x135 <= 1
 0 <= x136 <= 1
 0 <= x137 <= 1
 0 <= x138 <= 1
 0 <= x139 <= 1
 0 <= x140 <= 1
 0 <= x141 <= 1
 0 <= x142 <= 1
 0 <= x143 <= 1
 0 <= x144 <= 1
 0 <= x145 <= 1
 0 <= x146 <= 1
 0 <= x147 <= 1
 0 <= x148 <= 1
 0 <= x149 <= 1
 0 <= x150 <= 1
 0 <= x151 <= 1
 0 <= x152 <= 1
 0 <= x153 <= 1
 0 <= x154 <= 1
 0 <= x155 <= 1
 0 <= x156 <= 1
 0 <= x157 <= 1
 0 <= x158 <= 1
 0 <= x159 <= 1
 0 <= x160 <= 1
 0 <= x161 <= 1
 0 <= x162 <= 1
 0 <= x163 <= 1
 0 <= x164 <= 1
 0 <= x165 <= 1
 0 <= x166 <= 1
 0 <= x167 <= 1
 0 <= x168 <= 1
 0 <= x169 <= 1
 0 <= x170 <= 1
 0 <= x171 <= 1
 0 <= x172 <= 1
 0 <= x173 <= 1
 0 <= x174 <= 1
 0 <= x175 <= 1
 0 <= x176 <= 1
 0 <= x177 <= 1
 0 <= x178 <= 1
 0 <= x179 <= 1
 0 <= x180 <= 1
 0 <= x181 <= 1
 0 <= x182 <= 1
 0 <= x183 <= 1
 0 <= x184 <= 1
 0 <= x185 <= 1
 0 <= x186 <= 1
 0 <= x187 <= 1
 0 <= x188 <= 1
 0 <= x189 <= 1
 0 <= x190 <= 1
 0 <= x191 <= 1
 0 <= x192 <= 1
 0 <= x193 <= 1
 0 <= x194 <= 1
 0 <= x195 <= 1
 0 <= x196 <= 1
 0 <= x197 <= 1
 0 <= x198 <= 1
 0 <= x199 <= 1
 0 <= x200 <= 1
 0 <= x201 <= 1
 0 <= x202 <= 1
 0 <= x203 <= 1
 0 <= x204 <= 1
 0 <= x205 <= 1
Binaries
 x1  x2  x3  x4  x5  x6  x7  x8  x9  x10  x11  x12  x13  x14  x15  x16  x17 
 x18  x19  x20  x21  x22  x23  x24  x25  x26  x27  x28  x29  x30  x31  x32 
 x33  x34  x35  x36  x37  x38  x39  x40  x41  x42  x43  x44  x45  x46  x47 
 x48  x49  x50  x51  x52  x53  x54  x55  x56  x57  x58  x59  x60  x61  x62 
 x63  x64  x65  x66  x67  x68  x69  x70  x71  x72  x73  x74  x75  x76  x77 
 x78  x79  x80  x81  x82  x83  x84  x85  x86  x87  x88  x89  x90  x91  x92 
 x93  x94  x95  x96  x97  x98  x99  x100  x101  x102  x103  x104  x105  x106 
 x107  x108  x109  x110  x111  x112  x113  x114  x115  x116  x117  x118  x119 
 x120  x121  x122  x123  x124  x125  x126  x127  x128  x129  x130  x131  x132 
 x133  x134  x135  x136  x137  x138  x139  x140  x141  x142  x143  x144  x145 
 x146  x147  x148  x149  x150  x151  x152  x153  x154  x155  x156  x157  x158 
 x159  x160  x161  x162  x163  x164  x165  x166  x167  x168  x169  x170  x171 
 x172  x173  x174  x175  x176  x177  x178  x179  x180  x181  x182  x183  x184 
 x185  x186  x187  x188  x189  x190  x191  x192  x193  x194  x195  x196  x197 
 x198  x199  x200  x201  x202  x203  x204  x205 
End
